p cnf 36 99
a 1 14 0
e 2 3 4 5 6 7 8 9 10 11 12 13 15 16 17 18 19 20 21 22 23 24 25 26 27 28 29 30 31 32 33 34 35 36 0
-1 -2 -3 0
1 2 -3 0
-1 2 3 0
1 -2 3 0
-5 4 0
-5 3 0
-4 -3 5 0
-6 -3 0
-6 5 0
3 -5 6 0
8 -9 -10 0
-8 9 -10 0
8 9 10 0
-8 -9 10 0
11 -7 0
11 10 0
7 -10 -11 0
-13 11 0
-13 -12 0
-11 12 13 0
14 -3 0
14 -13 0
3 13 -14 0
-15 6 0
-15 -14 0
-6 14 15 0
-16 -17 -18 0
16 17 -18 0
-16 17 18 0
16 -17 18 0
4 -2 -19 0
-4 2 -19 0
4 2 19 0
-4 -2 19 0
-20 10 0
-20 -19 0
-10 19 20 0
-20 1 -21 0
20 -1 -21 0
-20 -1 21 0
20 1 21 0
18 -21 -22 0
-18 21 -22 0
18 21 22 0
-18 -21 22 0
-23 -22 0
-23 -13 0
22 13 23 0
-24 -23 0
-24 8 0
23 -8 24 0
25 -15 0
25 24 0
15 -24 -25 0
21 -2 -26 0
-21 2 -26 0
21 2 26 0
-21 -2 26 0
26 -27 -28 0
-26 27 -28 0
26 27 28 0
-26 -27 28 0
9 8 -29 0
-9 -8 -29 0
9 -8 29 0
-9 8 29 0
30 29 0
30 4 0
-29 -4 -30 0
-28 -30 -31 0
28 30 -31 0
-28 30 31 0
28 -30 31 0
32 11 0
32 10 0
-11 -10 -32 0
31 -32 -33 0
-31 32 -33 0
31 32 33 0
-31 -32 33 0
34 29 0
34 2 0
-29 -2 -34 0
35 33 0
35 -34 0
-33 34 -35 0
36 -25 0
36 35 0
25 -35 -36 0
-7 31 -16 -15 0
-25 -9 -10 -29 -13 20 -32 15 0
29 -4 -34 35 20 14 -31 -33 0
-32 -1 2 0
9 19 34 0
35 11 36 -25 23 0
12 -3 -31 -25 8 22 -11 0
9 -33 -27 -14 10 0
-7 -5 25 26 0
36 0
